p cnf 25 105
-1 0
-5 0
-11 0
-3 0
-10 0
1 -1 0
7 -6 0
12 -13 0
4 -2 0
9 -8 0
6 -7 0
5 -5 0
23 -22 0
14 -15 0
20 -21 0
13 -12 0
22 -23 0
11 -11 0
18 -19 0
24 -25 0
2 -4 0
15 -14 0
19 -18 0
3 -3 0
17 -16 0
8 -9 0
21 -20 0
25 -24 0
16 -17 0
10 -10 0
1 7 12 4 0
1 7 12 9 0
1 7 4 9 0
1 12 4 9 0
7 12 4 9 0
6 5 23 14 0
6 5 23 20 0
6 5 14 20 0
6 23 14 20 0
5 23 14 20 0
13 22 11 18 0
13 22 11 24 0
13 22 18 24 0
13 11 18 24 0
22 11 18 24 0
2 15 19 3 0
2 15 19 17 0
2 15 3 17 0
2 19 3 17 0
15 19 3 17 0
8 21 25 16 0
8 21 25 10 0
8 21 16 10 0
8 25 16 10 0
21 25 16 10 0
-1 -7 -12 0
-1 -7 -4 0
-1 -7 -9 0
-1 -12 -4 0
-1 -12 -9 0
-1 -4 -9 0
-7 -12 -4 0
-7 -12 -9 0
-7 -4 -9 0
-12 -4 -9 0
-6 -5 -23 0
-6 -5 -14 0
-6 -5 -20 0
-6 -23 -14 0
-6 -23 -20 0
-6 -14 -20 0
-5 -23 -14 0
-5 -23 -20 0
-5 -14 -20 0
-23 -14 -20 0
-13 -22 -11 0
-13 -22 -18 0
-13 -22 -24 0
-13 -11 -18 0
-13 -11 -24 0
-13 -18 -24 0
-22 -11 -18 0
-22 -11 -24 0
-22 -18 -24 0
-11 -18 -24 0
-2 -15 -19 0
-2 -15 -3 0
-2 -15 -17 0
-2 -19 -3 0
-2 -19 -17 0
-2 -3 -17 0
-15 -19 -3 0
-15 -19 -17 0
-15 -3 -17 0
-19 -3 -17 0
-8 -21 -25 0
-8 -21 -16 0
-8 -21 -10 0
-8 -25 -16 0
-8 -25 -10 0
-8 -16 -10 0
-21 -25 -16 0
-21 -25 -10 0
-21 -16 -10 0
-25 -16 -10 0